
Gurobi 9.0.3 (mac64, gurobi_cl) logging started Wed Jul 14 15:53:27 2021

Using license file /Users/hesamshaelaie/gurobi.lic
Set parameter LogFile to value gurobi.log

Gurobi 9.0.3 (mac64, gurobi_cl) logging started Wed Jul 14 16:00:59 2021

Using license file /Users/hesamshaelaie/gurobi.lic
Set parameter LogFile to value gurobi.log
Academic license - for non-commercial use only

Gurobi 9.0.3 (mac64, gurobi_cl) logging started Wed Jul 14 16:01:21 2021

Using license file /Users/hesamshaelaie/gurobi.lic
Set parameter LogFile to value gurobi.log
Academic license - for non-commercial use only

Gurobi Optimizer version 9.0.3 build v9.0.3rc0 (mac64)
Copyright (c) 2020, Gurobi Optimization, LLC

Read MPS format model from file src/test.mps
Reading time = 0.00 seconds
: 8 rows, 3 columns, 12 nonzeros
Optimize a model with 8 rows, 3 columns and 12 nonzeros
Model fingerprint: 0x4d21724b
Variable types: 2 continuous, 1 integer (0 binary)
Coefficient statistics:
  Matrix range     [1e+00, 7e+00]
  Objective range  [1e+00, 3e+00]
  Bounds range     [0e+00, 0e+00]
  RHS range        [5e+00, 1e+01]
Presolve removed 5 rows and 1 columns
Presolve time: 0.00s
Presolved: 3 rows, 2 columns, 6 nonzeros
Variable types: 0 continuous, 2 integer (0 binary)
Found heuristic solution: objective 8.0000000

Root relaxation: objective 6.133333e+00, 2 iterations, 0.00 seconds

    Nodes    |    Current Node    |     Objective Bounds      |     Work
 Expl Unexpl |  Obj  Depth IntInf | Incumbent    BestBd   Gap | It/Node Time

     0     0    6.13333    0    2    8.00000    6.13333  23.3%     -    0s
H    0     0                       6.5714286    6.13333  6.67%     -    0s
     0     0    6.57143    0    1    6.57143    6.57143  0.00%     -    0s

Cutting planes:
  StrongCG: 1

Explored 1 nodes (3 simplex iterations) in 0.01 seconds
Thread count was 8 (of 8 available processors)

Solution count 2: 6.57143 8 

Optimal solution found (tolerance 1.00e-04)
Best objective 6.571428571429e+00, best bound 6.571428571429e+00, gap 0.0000%
